0 1 166
0 2 68
0 3 590
0 4 701
0 5 563
0 6 453
0 7 420
0 8 63
0 9 872
0 10 752
0 11 943
0 12 636
0 13 291
0 14 37
0 15 720
0 16 179
0 17 794
0 18 479
0 19 633
0 20 869
0 21 538
0 22 518
0 23 305
0 24 742
0 25 399
0 26 158
0 27 666
0 28 938
0 29 118
0 30 612
0 31 458
0 32 456
0 33 739
0 34 160
0 35 379
0 36 445
0 37 46
0 38 406
0 39 183
0 40 301
0 41 897
0 42 744
0 43 428
0 44 346
0 45 453
0 46 360
0 47 112
0 48 228
0 49 65
0 50 869
0 51 624
0 52 398
0 53 810
0 54 619
0 55 862
0 56 454
0 57 264
0 58 890
0 59 228
0 60 133
0 61 109
0 62 392
0 63 61
0 64 691
0 65 293
0 66 452
0 67 215
0 68 842
0 69 415
0 70 969
0 71 577
0 72 220
0 73 197
0 74 979
1 2 924
1 3 897
1 4 592
1 5 850
1 6 912
1 7 978
1 8 725
1 9 440
1 10 759
1 11 750
1 12 317
1 13 904
1 14 538
1 15 937
1 16 654
1 17 918
1 18 590
1 19 578
1 20 790
1 21 540
1 22 45
1 23 827
1 24 982
1 25 179
1 26 579
1 27 618
1 28 31
1 29 500
1 30 932
1 31 188
1 32 93
1 33 193
1 34 90
1 35 898
1 36 198
1 37 974
1 38 320
1 39 359
1 40 217
1 41 643
1 42 499
1 43 436
1 44 88
1 45 159
1 46 855
1 47 34
1 48 230
1 49 983
1 50 582
1 51 958
1 52 357
1 53 594
1 54 427
1 55 994
1 56 195
1 57 167
1 58 747
1 59 761
1 60 138
1 61 446
1 62 743
1 63 940
1 64 55
1 65 696
1 66 68
1 67 7
1 68 17
1 69 384
1 70 288
1 71 171
1 72 524
1 73 66
1 74 968
2 3 658
2 4 126
2 5 513
2 6 638
2 7 766
2 8 296
2 9 594
2 10 632
2 11 835
2 12 629
2 13 865
2 14 592
2 15 431
2 16 219
2 17 662
2 18 0
2 19 860
2 20 722
2 21 85
2 22 25
2 23 525
2 24 893
2 25 533
2 26 228
2 27 1000
2 28 561
2 29 28
2 30 984
2 31 176
2 32 823
2 33 467
2 34 655
2 35 628
2 36 53
2 37 786
2 38 911
2 39 869
2 40 464
2 41 113
2 42 641
2 43 615
2 44 459
2 45 644
2 46 537
2 47 532
2 48 851
2 49 454
2 50 896
2 51 539
2 52 284
2 53 497
2 54 983
2 55 409
2 56 474
2 57 741
2 58 118
2 59 715
2 60 195
2 61 39
2 62 509
2 63 926
2 64 246
2 65 257
2 66 569
2 67 31
2 68 568
2 69 658
2 70 331
2 71 694
2 72 620
2 73 745
2 74 591
3 4 799
3 5 367
3 6 90
3 7 633
3 8 629
3 9 376
3 10 707
3 11 5
3 12 721
3 13 880
3 14 440
3 15 959
3 16 190
3 17 651
3 18 236
3 19 941
3 20 731
3 21 281
3 22 990
3 23 141
3 24 386
3 25 763
3 26 58
3 27 661
3 28 522
3 29 349
3 30 159
3 31 75
3 32 463
3 33 717
3 34 880
3 35 114
3 36 984
3 37 219
3 38 8
3 39 781
3 40 215
3 41 645
3 42 707
3 43 483
3 44 727
3 45 733
3 46 843
3 47 221
3 48 56
3 49 174
3 50 292
3 51 194
3 52 661
3 53 160
3 54 575
3 55 731
3 56 516
3 57 341
3 58 2
3 59 181
3 60 38
3 61 637
3 62 68
3 63 558
3 64 982
3 65 71
3 66 164
3 67 749
3 68 592
3 69 970
3 70 276
3 71 234
3 72 199
3 73 113
3 74 777
4 5 6
4 6 327
4 7 439
4 8 864
4 9 448
4 10 208
4 11 604
4 12 540
4 13 852
4 14 492
4 15 993
4 16 471
4 17 626
4 18 886
4 19 289
4 20 69
4 21 242
4 22 31
4 23 954
4 24 480
4 25 176
4 26 212
4 27 372
4 28 401
4 29 890
4 30 455
4 31 473
4 32 141
4 33 771
4 34 512
4 35 759
4 36 958
4 37 143
4 38 461
4 39 278
4 40 274
4 41 226
4 42 123
4 43 627
4 44 725
4 45 103
4 46 22
4 47 27
4 48 684
4 49 236
4 50 462
4 51 576
4 52 165
4 53 855
4 54 487
4 55 346
4 56 523
4 57 466
4 58 712
4 59 899
4 60 735
4 61 200
4 62 283
4 63 91
4 64 92
4 65 37
4 66 377
4 67 70
4 68 161
4 69 765
4 70 329
4 71 416
4 72 328
4 73 921
4 74 190
5 6 144
5 7 204
5 8 375
5 9 287
5 10 560
5 11 163
5 12 534
5 13 521
5 14 9
5 15 125
5 16 134
5 17 14
5 18 781
5 19 552
5 20 928
5 21 528
5 22 540
5 23 937
5 24 540
5 25 314
5 26 677
5 27 167
5 28 167
5 29 990
5 30 952
5 31 853
5 32 738
5 33 221
5 34 702
5 35 453
5 36 450
5 37 66
5 38 513
5 39 657
5 40 362
5 41 869
5 42 146
5 43 107
5 44 406
5 45 226
5 46 777
5 47 732
5 48 163
5 49 910
5 50 896
5 51 467
5 52 789
5 53 278
5 54 311
5 55 2
5 56 535
5 57 154
5 58 803
5 59 317
5 60 393
5 61 13
5 62 370
5 63 667
5 64 276
5 65 486
5 66 132
5 67 436
5 68 999
5 69 472
5 70 88
5 71 34
5 72 236
5 73 773
5 74 230
6 7 970
6 8 609
6 9 269
6 10 506
6 11 350
6 12 902
6 13 873
6 14 972
6 15 567
6 16 909
6 17 944
6 18 298
6 19 403
6 20 570
6 21 936
6 22 714
6 23 857
6 24 63
6 25 941
6 26 906
6 27 343
6 28 981
6 29 246
6 30 270
6 31 94
6 32 582
6 33 198
6 34 533
6 35 826
6 36 179
6 37 542
6 38 818
6 39 681
6 40 126
6 41 866
6 42 607
6 43 925
6 44 108
6 45 110
6 46 704
6 47 50
6 48 689
6 49 895
6 50 815
6 51 995
6 52 559
6 53 81
6 54 789
6 55 132
6 56 283
6 57 45
6 58 371
6 59 833
6 60 182
6 61 969
6 62 365
6 63 938
6 64 927
6 65 875
6 66 399
6 67 203
6 68 736
6 69 926
6 70 603
6 71 750
6 72 100
6 73 313
6 74 399
7 8 883
7 9 676
7 10 154
7 11 346
7 12 310
7 13 937
7 14 166
7 15 683
7 16 995
7 17 268
7 18 678
7 19 319
7 20 912
7 21 429
7 22 987
7 23 928
7 24 144
7 25 372
7 26 312
7 27 310
7 28 230
7 29 493
7 30 389
7 31 640
7 32 811
7 33 72
7 34 750
7 35 628
7 36 967
7 37 503
7 38 165
7 39 164
7 40 775
7 41 932
7 42 114
7 43 24
7 44 260
7 45 300
7 46 119
7 47 745
7 48 239
7 49 637
7 50 780
7 51 371
7 52 216
7 53 856
7 54 903
7 55 687
7 56 14
7 57 631
7 58 6
7 59 37
7 60 772
7 61 913
7 62 593
7 63 963
7 64 12
7 65 786
7 66 404
7 67 20
7 68 816
7 69 80
7 70 39
7 71 858
7 72 604
7 73 207
7 74 306
8 9 328
8 10 810
8 11 467
8 12 97
8 13 829
8 14 309
8 15 439
8 16 453
8 17 418
8 18 543
8 19 381
8 20 319
8 21 774
8 22 130
8 23 242
8 24 600
8 25 116
8 26 535
8 27 443
8 28 232
8 29 151
8 30 858
8 31 747
8 32 649
8 33 821
8 34 932
8 35 286
8 36 871
8 37 791
8 38 738
8 39 202
8 40 323
8 41 772
8 42 580
8 43 664
8 44 953
8 45 164
8 46 220
8 47 704
8 48 98
8 49 861
8 50 505
8 51 613
8 52 720
8 53 229
8 54 177
8 55 17
8 56 414
8 57 245
8 58 17
8 59 262
8 60 251
8 61 170
8 62 81
8 63 925
8 64 103
8 65 888
8 66 570
8 67 939
8 68 121
8 69 336
8 70 846
8 71 132
8 72 195
8 73 393
8 74 491
9 10 748
9 11 920
9 12 18
9 13 573
9 14 874
9 15 554
9 16 158
9 17 147
9 18 164
9 19 128
9 20 801
9 21 664
9 22 205
9 23 317
9 24 715
9 25 126
9 26 115
9 27 594
9 28 663
9 29 561
9 30 30
9 31 496
9 32 960
9 33 181
9 34 584
9 35 874
9 36 213
9 37 813
9 38 444
9 39 368
9 40 399
9 41 350
9 42 461
9 43 584
9 44 602
9 45 786
9 46 209
9 47 2
9 48 74
9 49 427
9 50 42
9 51 941
9 52 985
9 53 239
9 54 493
9 55 451
9 56 940
9 57 931
9 58 889
9 59 161
9 60 962
9 61 637
9 62 167
9 63 198
9 64 252
9 65 982
9 66 334
9 67 668
9 68 874
9 69 899
9 70 399
9 71 899
9 72 815
9 73 984
9 74 397
10 11 14
10 12 332
10 13 215
10 14 962
10 15 895
10 16 144
10 17 777
10 18 928
10 19 732
10 20 269
10 21 785
10 22 288
10 23 470
10 24 366
10 25 499
10 26 651
10 27 526
10 28 934
10 29 286
10 30 548
10 31 949
10 32 787
10 33 191
10 34 783
10 35 137
10 36 294
10 37 328
10 38 262
10 39 384
10 40 204
10 41 374
10 42 701
10 43 222
10 44 479
10 45 723
10 46 306
10 47 208
10 48 514
10 49 783
10 50 553
10 51 181
10 52 99
10 53 184
10 54 129
10 55 65
10 56 797
10 57 238
10 58 392
10 59 471
10 60 774
10 61 587
10 62 167
10 63 628
10 64 246
10 65 165
10 66 762
10 67 757
10 68 72
10 69 507
10 70 36
10 71 234
10 72 430
10 73 416
10 74 977
11 12 98
11 13 630
11 14 207
11 15 383
11 16 446
11 17 484
11 18 865
11 19 136
11 20 364
11 21 665
11 22 134
11 23 113
11 24 784
11 25 479
11 26 219
11 27 37
11 28 794
11 29 208
11 30 806
11 31 54
11 32 758
11 33 693
11 34 299
11 35 783
11 36 820
11 37 422
11 38 719
11 39 801
11 40 6
11 41 484
11 42 532
11 43 351
11 44 973
11 45 755
11 46 533
11 47 495
11 48 525
11 49 835
11 50 465
11 51 274
11 52 481
11 53 350
11 54 626
11 55 968
11 56 602
11 57 130
11 58 815
11 59 682
11 60 841
11 61 824
11 62 107
11 63 716
11 64 654
11 65 286
11 66 941
11 67 420
11 68 121
11 69 490
11 70 438
11 71 997
11 72 91
11 73 772
11 74 634
12 13 833
12 14 831
12 15 441
12 16 282
12 17 468
12 18 620
12 19 987
12 20 38
12 21 766
12 22 418
12 23 977
12 24 347
12 25 552
12 26 596
12 27 419
12 28 335
12 29 839
12 30 940
12 31 248
12 32 985
12 33 310
12 34 524
12 35 280
12 36 226
12 37 475
12 38 459
12 39 933
12 40 805
12 41 287
12 42 658
12 43 214
12 44 994
12 45 112
12 46 114
12 47 768
12 48 934
12 49 762
12 50 526
12 51 238
12 52 40
12 53 42
12 54 825
12 55 886
12 56 511
12 57 391
12 58 256
12 59 436
12 60 626
12 61 178
12 62 164
12 63 136
12 64 408
12 65 716
12 66 866
12 67 223
12 68 317
12 69 554
12 70 683
12 71 476
12 72 787
12 73 797
12 74 407
13 14 516
13 15 417
13 16 340
13 17 342
13 18 983
13 19 343
13 20 596
13 21 932
13 22 727
13 23 953
13 24 955
13 25 13
13 26 629
13 27 333
13 28 126
13 29 248
13 30 674
13 31 512
13 32 312
13 33 283
13 34 903
13 35 749
13 36 702
13 37 986
13 38 445
13 39 183
13 40 674
13 41 503
13 42 0
13 43 742
13 44 906
13 45 566
13 46 501
13 47 339
13 48 415
13 49 501
13 50 42
13 51 834
13 52 258
13 53 740
13 54 470
13 55 160
13 56 59
13 57 798
13 58 926
13 59 811
13 60 568
13 61 377
13 62 300
13 63 55
13 64 549
13 65 919
13 66 324
13 67 680
13 68 887
13 69 229
13 70 771
13 71 513
13 72 748
13 73 480
13 74 73
14 15 173
14 16 126
14 17 550
14 18 408
14 19 825
14 20 65
14 21 854
14 22 115
14 23 261
14 24 131
14 25 764
14 26 175
14 27 147
14 28 331
14 29 758
14 30 598
14 31 787
14 32 281
14 33 262
14 34 199
14 35 722
14 36 787
14 37 241
14 38 639
14 39 110
14 40 645
14 41 226
14 42 493
14 43 356
14 44 185
14 45 722
14 46 251
14 47 227
14 48 150
14 49 598
14 50 625
14 51 345
14 52 790
14 53 542
14 54 200
14 55 887
14 56 794
14 57 174
14 58 838
14 59 513
14 60 629
14 61 31
14 62 972
14 63 980
14 64 335
14 65 339
14 66 207
14 67 315
14 68 28
14 69 308
14 70 917
14 71 350
14 72 328
14 73 826
14 74 327
15 16 361
15 17 580
15 18 109
15 19 344
15 20 965
15 21 295
15 22 818
15 23 841
15 24 14
15 25 784
15 26 952
15 27 285
15 28 133
15 29 7
15 30 250
15 31 618
15 32 960
15 33 532
15 34 700
15 35 845
15 36 443
15 37 950
15 38 225
15 39 852
15 40 419
15 41 527
15 42 714
15 43 858
15 44 183
15 45 536
15 46 61
15 47 148
15 48 851
15 49 960
15 50 349
15 51 827
15 52 674
15 53 967
15 54 332
15 55 582
15 56 80
15 57 940
15 58 324
15 59 44
15 60 850
15 61 402
15 62 567
15 63 246
15 64 37
15 65 581
15 66 234
15 67 432
15 68 964
15 69 97
15 70 163
15 71 712
15 72 58
15 73 285
15 74 183
16 17 772
16 18 435
16 19 772
16 20 905
16 21 696
16 22 61
16 23 147
16 24 752
16 25 617
16 26 122
16 27 674
16 28 75
16 29 48
16 30 52
16 31 825
16 32 462
16 33 735
16 34 129
16 35 784
16 36 943
16 37 414
16 38 998
16 39 479
16 40 33
16 41 396
16 42 892
16 43 722
16 44 291
16 45 606
16 46 120
16 47 329
16 48 932
16 49 829
16 50 195
16 51 708
16 52 982
16 53 622
16 54 360
16 55 337
16 56 550
16 57 60
16 58 707
16 59 864
16 60 359
16 61 86
16 62 330
16 63 913
16 64 454
16 65 502
16 66 288
16 67 458
16 68 913
16 69 401
16 70 725
16 71 704
16 72 48
16 73 779
16 74 640
17 18 774
17 19 688
17 20 705
17 21 880
17 22 986
17 23 80
17 24 331
17 25 183
17 26 501
17 27 367
17 28 756
17 29 806
17 30 323
17 31 802
17 32 448
17 33 243
17 34 273
17 35 685
17 36 676
17 37 44
17 38 831
17 39 992
17 40 686
17 41 505
17 42 74
17 43 593
17 44 184
17 45 34
17 46 599
17 47 485
17 48 332
17 49 362
17 50 896
17 51 274
17 52 341
17 53 280
17 54 7
17 55 273
17 56 569
17 57 242
17 58 694
17 59 414
17 60 256
17 61 617
17 62 752
17 63 53
17 64 464
17 65 843
17 66 930
17 67 659
17 68 546
17 69 520
17 70 527
17 71 566
17 72 822
17 73 869
17 74 523
18 19 869
18 20 407
18 21 331
18 22 431
18 23 641
18 24 236
18 25 94
18 26 931
18 27 369
18 28 671
18 29 220
18 30 128
18 31 250
18 32 165
18 33 815
18 34 390
18 35 759
18 36 786
18 37 743
18 38 470
18 39 168
18 40 829
18 41 822
18 42 393
18 43 473
18 44 220
18 45 846
18 46 819
18 47 125
18 48 10
18 49 728
18 50 855
18 51 195
18 52 576
18 53 530
18 54 896
18 55 893
18 56 342
18 57 422
18 58 269
18 59 608
18 60 202
18 61 491
18 62 469
18 63 398
18 64 571
18 65 983
18 66 748
18 67 311
18 68 24
18 69 850
18 70 175
18 71 214
18 72 683
18 73 779
18 74 74
19 20 357
19 21 158
19 22 617
19 23 680
19 24 424
19 25 713
19 26 198
19 27 557
19 28 466
19 29 856
19 30 758
19 31 387
19 32 426
19 33 588
19 34 246
19 35 589
19 36 793
19 37 422
19 38 480
19 39 160
19 40 559
19 41 181
19 42 229
19 43 77
19 44 620
19 45 120
19 46 645
19 47 749
19 48 382
19 49 118
19 50 487
19 51 530
19 52 286
19 53 473
19 54 855
19 55 253
19 56 696
19 57 691
19 58 363
19 59 315
19 60 414
19 61 428
19 62 531
19 63 854
19 64 917
19 65 578
19 66 559
19 67 148
19 68 178
19 69 108
19 70 941
19 71 32
19 72 766
19 73 887
19 74 609
20 21 536
20 22 439
20 23 881
20 24 163
20 25 255
20 26 277
20 27 859
20 28 650
20 29 133
20 30 377
20 31 112
20 32 529
20 33 647
20 34 599
20 35 555
20 36 352
20 37 698
20 38 679
20 39 309
20 40 513
20 41 492
20 42 310
20 43 756
20 44 63
20 45 463
20 46 198
20 47 730
20 48 79
20 49 221
20 50 791
20 51 846
20 52 748
20 53 736
20 54 981
20 55 468
20 56 279
20 57 489
20 58 82
20 59 513
20 60 522
20 61 282
20 62 567
20 63 68
20 64 311
20 65 427
20 66 608
20 67 561
20 68 125
20 69 666
20 70 480
20 71 163
20 72 679
20 73 213
20 74 765
21 22 173
21 23 207
21 24 737
21 25 511
21 26 24
21 27 518
21 28 613
21 29 875
21 30 272
21 31 543
21 32 167
21 33 417
21 34 833
21 35 627
21 36 142
21 37 655
21 38 840
21 39 797
21 40 216
21 41 901
21 42 569
21 43 212
21 44 167
21 45 84
21 46 624
21 47 169
21 48 278
21 49 663
21 50 0
21 51 599
21 52 94
21 53 471
21 54 660
21 55 272
21 56 553
21 57 899
21 58 941
21 59 874
21 60 843
21 61 947
21 62 978
21 63 256
21 64 443
21 65 125
21 66 997
21 67 288
21 68 517
21 69 0
21 70 622
21 71 127
21 72 671
21 73 920
21 74 929
22 23 665
22 24 437
22 25 485
22 26 96
22 27 641
22 28 59
22 29 239
22 30 837
22 31 989
22 32 833
22 33 141
22 34 748
22 35 197
22 36 723
22 37 777
22 38 66
22 39 202
22 40 317
22 41 890
22 42 782
22 43 751
22 44 126
22 45 127
22 46 457
22 47 441
22 48 258
22 49 675
22 50 659
22 51 644
22 52 256
22 53 598
22 54 54
22 55 668
22 56 38
22 57 599
22 58 964
22 59 51
22 60 562
22 61 141
22 62 770
22 63 870
22 64 300
22 65 350
22 66 628
22 67 716
22 68 447
22 69 601
22 70 427
22 71 439
22 72 153
22 73 665
22 74 812
23 24 594
23 25 33
23 26 619
23 27 984
23 28 248
23 29 981
23 30 274
23 31 12
23 32 97
23 33 743
23 34 717
23 35 280
23 36 311
23 37 793
23 38 720
23 39 570
23 40 448
23 41 235
23 42 659
23 43 374
23 44 678
23 45 926
23 46 46
23 47 307
23 48 955
23 49 991
23 50 847
23 51 590
23 52 418
23 53 410
23 54 411
23 55 677
23 56 740
23 57 210
23 58 417
23 59 469
23 60 610
23 61 513
23 62 536
23 63 169
23 64 441
23 65 249
23 66 109
23 67 184
23 68 262
23 69 794
23 70 516
23 71 927
23 72 844
23 73 321
23 74 176
24 25 74
24 26 655
24 27 650
24 28 369
24 29 212
24 30 5
24 31 692
24 32 482
24 33 256
24 34 64
24 35 174
24 36 679
24 37 413
24 38 226
24 39 417
24 40 173
24 41 933
24 42 544
24 43 24
24 44 32
24 45 95
24 46 77
24 47 592
24 48 254
24 49 817
24 50 872
24 51 814
24 52 89
24 53 950
24 54 333
24 55 436
24 56 179
24 57 190
24 58 124
24 59 181
24 60 535
24 61 297
24 62 589
24 63 1
24 64 332
24 65 573
24 66 291
24 67 884
24 68 840
24 69 104
24 70 504
24 71 774
24 72 101
24 73 173
24 74 720
25 26 278
25 27 591
25 28 960
25 29 207
25 30 556
25 31 192
25 32 381
25 33 616
25 34 977
25 35 828
25 36 71
25 37 643
25 38 349
25 39 608
25 40 326
25 41 50
25 42 48
25 43 922
25 44 864
25 45 653
25 46 727
25 47 418
25 48 748
25 49 586
25 50 861
25 51 287
25 52 131
25 53 406
25 54 766
25 55 797
25 56 625
25 57 477
25 58 370
25 59 583
25 60 698
25 61 617
25 62 491
25 63 491
25 64 867
25 65 518
25 66 578
25 67 235
25 68 411
25 69 823
25 70 814
25 71 430
25 72 247
25 73 645
25 74 399
26 27 767
26 28 924
26 29 803
26 30 879
26 31 750
26 32 67
26 33 839
26 34 701
26 35 224
26 36 823
26 37 855
26 38 992
26 39 173
26 40 176
26 41 192
26 42 792
26 43 604
26 44 720
26 45 921
26 46 425
26 47 449
26 48 289
26 49 202
26 50 62
26 51 867
26 52 428
26 53 932
26 54 329
26 55 111
26 56 870
26 57 606
26 58 189
26 59 930
26 60 1
26 61 44
26 62 989
26 63 269
26 64 885
26 65 192
26 66 777
26 67 485
26 68 842
26 69 93
26 70 266
26 71 914
26 72 834
26 73 394
26 74 559
27 28 707
27 29 104
27 30 481
27 31 242
27 32 39
27 33 656
27 34 972
27 35 158
27 36 45
27 37 157
27 38 92
27 39 473
27 40 785
27 41 867
27 42 537
27 43 801
27 44 776
27 45 192
27 46 218
27 47 18
27 48 131
27 49 649
27 50 784
27 51 747
27 52 321
27 53 776
27 54 129
27 55 563
27 56 395
27 57 731
27 58 255
27 59 800
27 60 272
27 61 367
27 62 522
27 63 510
27 64 849
27 65 338
27 66 929
27 67 616
27 68 899
27 69 138
27 70 420
27 71 279
27 72 164
27 73 226
27 74 529
28 29 432
28 30 874
28 31 396
28 32 200
28 33 472
28 34 691
28 35 732
28 36 309
28 37 615
28 38 303
28 39 458
28 40 605
28 41 466
28 42 578
28 43 812
28 44 427
28 45 531
28 46 661
28 47 629
28 48 770
28 49 717
28 50 805
28 51 876
28 52 750
28 53 552
28 54 983
28 55 793
28 56 56
28 57 90
28 58 311
28 59 44
28 60 504
28 61 722
28 62 486
28 63 955
28 64 450
28 65 661
28 66 560
28 67 47
28 68 665
28 69 831
28 70 173
28 71 39
28 72 35
28 73 621
28 74 537
29 30 385
29 31 76
29 32 779
29 33 828
29 34 310
29 35 169
29 36 704
29 37 39
29 38 684
29 39 621
29 40 317
29 41 238
29 42 448
29 43 228
29 44 752
29 45 342
29 46 844
29 47 426
29 48 224
29 49 102
29 50 20
29 51 504
29 52 906
29 53 230
29 54 401
29 55 68
29 56 335
29 57 113
29 58 341
29 59 12
29 60 111
29 61 783
29 62 77
29 63 640
29 64 577
29 65 613
29 66 262
29 67 30
29 68 183
29 69 571
29 70 434
29 71 133
29 72 657
29 73 335
29 74 796
30 31 0
30 32 710
30 33 614
30 34 265
30 35 579
30 36 904
30 37 532
30 38 751
30 39 916
30 40 418
30 41 313
30 42 607
30 43 2
30 44 982
30 45 614
30 46 82
30 47 278
30 48 341
30 49 40
30 50 992
30 51 61
30 52 643
30 53 867
30 54 299
30 55 255
30 56 689
30 57 338
30 58 893
30 59 325
30 60 652
30 61 992
30 62 619
30 63 24
30 64 51
30 65 922
30 66 992
30 67 865
30 68 443
30 69 924
30 70 199
30 71 572
30 72 429
30 73 226
30 74 41
31 32 36
31 33 353
31 34 269
31 35 324
31 36 580
31 37 557
31 38 544
31 39 392
31 40 470
31 41 401
31 42 723
31 43 573
31 44 73
31 45 340
31 46 713
31 47 417
31 48 419
31 49 606
31 50 311
31 51 27
31 52 870
31 53 954
31 54 70
31 55 770
31 56 158
31 57 39
31 58 107
31 59 793
31 60 235
31 61 458
31 62 89
31 63 931
31 64 661
31 65 999
31 66 163
31 67 808
31 68 228
31 69 648
31 70 892
31 71 687
31 72 386
31 73 713
31 74 673
32 33 19
32 34 531
32 35 981
32 36 886
32 37 817
32 38 145
32 39 3
32 40 915
32 41 129
32 42 640
32 43 511
32 44 520
32 45 238
32 46 724
32 47 401
32 48 309
32 49 54
32 50 153
32 51 836
32 52 420
32 53 902
32 54 744
32 55 735
32 56 84
32 57 201
32 58 376
32 59 547
32 60 844
32 61 193
32 62 375
32 63 57
32 64 73
32 65 432
32 66 197
32 67 703
32 68 680
32 69 139
32 70 198
32 71 142
32 72 214
32 73 46
32 74 830
33 34 711
33 35 683
33 36 392
33 37 775
33 38 708
33 39 323
33 40 359
33 41 762
33 42 75
33 43 850
33 44 607
33 45 76
33 46 484
33 47 58
33 48 592
33 49 550
33 50 504
33 51 344
33 52 862
33 53 510
33 54 176
33 55 821
33 56 339
33 57 884
33 58 416
33 59 932
33 60 459
33 61 824
33 62 262
33 63 952
33 64 224
33 65 557
33 66 363
33 67 566
33 68 492
33 69 505
33 70 955
33 71 278
33 72 32
33 73 114
33 74 657
34 35 441
34 36 252
34 37 499
34 38 241
34 39 789
34 40 768
34 41 90
34 42 328
34 43 524
34 44 760
34 45 506
34 46 649
34 47 661
34 48 373
34 49 366
34 50 858
34 51 181
34 52 196
34 53 970
34 54 802
34 55 567
34 56 373
34 57 406
34 58 496
34 59 913
34 60 910
34 61 377
34 62 345
34 63 493
34 64 521
34 65 847
34 66 614
34 67 16
34 68 34
34 69 506
34 70 679
34 71 63
34 72 285
34 73 41
34 74 213
35 36 522
35 37 844
35 38 733
35 39 905
35 40 458
35 41 773
35 42 283
35 43 835
35 44 356
35 45 655
35 46 846
35 47 250
35 48 420
35 49 348
35 50 659
35 51 71
35 52 551
35 53 547
35 54 651
35 55 374
35 56 51
35 57 196
35 58 269
35 59 890
35 60 497
35 61 617
35 62 715
35 63 580
35 64 974
35 65 428
35 66 963
35 67 502
35 68 895
35 69 830
35 70 848
35 71 287
35 72 416
35 73 335
35 74 280
36 37 276
36 38 58
36 39 491
36 40 572
36 41 331
36 42 318
36 43 145
36 44 999
36 45 738
36 46 443
36 47 711
36 48 214
36 49 796
36 50 387
36 51 858
36 52 888
36 53 952
36 54 114
36 55 207
36 56 255
36 57 833
36 58 129
36 59 444
36 60 804
36 61 538
36 62 745
36 63 936
36 64 221
36 65 94
36 66 612
36 67 680
36 68 110
36 69 644
36 70 430
36 71 659
36 72 720
36 73 15
36 74 303
37 38 514
37 39 842
37 40 416
37 41 229
37 42 655
37 43 848
37 44 34
37 45 973
37 46 567
37 47 890
37 48 854
37 49 346
37 50 153
37 51 360
37 52 910
37 53 699
37 54 477
37 55 6
37 56 135
37 57 45
37 58 154
37 59 718
37 60 63
37 61 153
37 62 905
37 63 853
37 64 559
37 65 857
37 66 823
37 67 753
37 68 28
37 69 343
37 70 584
37 71 116
37 72 48
37 73 609
37 74 732
38 39 117
38 40 215
38 41 896
38 42 446
38 43 527
38 44 498
38 45 132
38 46 488
38 47 103
38 48 304
38 49 757
38 50 753
38 51 460
38 52 16
38 53 142
38 54 724
38 55 231
38 56 748
38 57 440
38 58 558
38 59 309
38 60 333
38 61 67
38 62 722
38 63 670
38 64 915
38 65 720
38 66 232
38 67 262
38 68 927
38 69 228
38 70 367
38 71 173
38 72 556
38 73 454
38 74 565
39 40 635
39 41 660
39 42 774
39 43 466
39 44 368
39 45 9
39 46 33
39 47 393
39 48 654
39 49 976
39 50 249
39 51 927
39 52 484
39 53 554
39 54 558
39 55 190
39 56 601
39 57 854
39 58 365
39 59 933
39 60 381
39 61 440
39 62 111
39 63 226
39 64 127
39 65 210
39 66 163
39 67 532
39 68 133
39 69 369
39 70 175
39 71 778
39 72 371
39 73 395
39 74 121
40 41 508
40 42 72
40 43 414
40 44 684
40 45 761
40 46 171
40 47 211
40 48 876
40 49 284
40 50 303
40 51 968
40 52 400
40 53 33
40 54 949
40 55 387
40 56 390
40 57 672
40 58 438
40 59 348
40 60 157
40 61 707
40 62 234
40 63 248
40 64 217
40 65 767
40 66 767
40 67 748
40 68 410
40 69 831
40 70 808
40 71 785
40 72 722
40 73 444
40 74 940
41 42 643
41 43 639
41 44 751
41 45 216
41 46 380
41 47 633
41 48 166
41 49 383
41 50 389
41 51 265
41 52 544
41 53 339
41 54 474
41 55 884
41 56 401
41 57 49
41 58 307
41 59 994
41 60 577
41 61 835
41 62 204
41 63 721
41 64 485
41 65 451
41 66 188
41 67 348
41 68 898
41 69 488
41 70 292
41 71 538
41 72 651
41 73 185
41 74 76
42 43 598
42 44 259
42 45 756
42 46 947
42 47 775
42 48 833
42 49 583
42 50 384
42 51 11
42 52 275
42 53 874
42 54 966
42 55 112
42 56 648
42 57 510
42 58 263
42 59 775
42 60 690
42 61 885
42 62 662
42 63 560
42 64 233
42 65 901
42 66 966
42 67 781
42 68 949
42 69 860
42 70 160
42 71 257
42 72 46
42 73 273
42 74 889
43 44 107
43 45 888
43 46 849
43 47 618
43 48 366
43 49 926
43 50 50
43 51 299
43 52 444
43 53 532
43 54 866
43 55 997
43 56 658
43 57 231
43 58 583
43 59 869
43 60 224
43 61 836
43 62 73
43 63 889
43 64 571
43 65 369
43 66 983
43 67 433
43 68 765
43 69 468
43 70 356
43 71 452
43 72 191
43 73 993
43 74 58
44 45 752
44 46 539
44 47 991
44 48 629
44 49 648
44 50 137
44 51 572
44 52 329
44 53 916
44 54 849
44 55 257
44 56 239
44 57 939
44 58 55
44 59 235
44 60 765
44 61 626
44 62 25
44 63 441
44 64 854
44 65 482
44 66 538
44 67 362
44 68 818
44 69 817
44 70 161
44 71 603
44 72 645
44 73 488
44 74 681
45 46 252
45 47 855
45 48 442
45 49 133
45 50 608
45 51 225
45 52 343
45 53 970
45 54 170
45 55 750
45 56 318
45 57 208
45 58 204
45 59 449
45 60 968
45 61 421
45 62 589
45 63 791
45 64 243
45 65 255
45 66 94
45 67 529
45 68 324
45 69 946
45 70 822
45 71 554
45 72 291
45 73 609
45 74 305
46 47 680
46 48 340
46 49 310
46 50 186
46 51 334
46 52 401
46 53 424
46 54 732
46 55 381
46 56 197
46 57 801
46 58 129
46 59 423
46 60 780
46 61 127
46 62 917
46 63 479
46 64 920
46 65 685
46 66 171
46 67 770
46 68 916
46 69 735
46 70 850
46 71 723
46 72 16
46 73 455
46 74 478
47 48 113
47 49 699
47 50 592
47 51 732
47 52 82
47 53 265
47 54 163
47 55 265
47 56 969
47 57 894
47 58 376
47 59 804
47 60 100
47 61 327
47 62 984
47 63 53
47 64 869
47 65 568
47 66 322
47 67 72
47 68 754
47 69 771
47 70 52
47 71 674
47 72 997
47 73 825
47 74 263
48 49 790
48 50 526
48 51 881
48 52 466
48 53 840
48 54 34
48 55 51
48 56 274
48 57 135
48 58 232
48 59 546
48 60 867
48 61 882
48 62 46
48 63 178
48 64 243
48 65 188
48 66 626
48 67 30
48 68 896
48 69 434
48 70 334
48 71 252
48 72 961
48 73 32
48 74 862
49 50 709
49 51 902
49 52 491
49 53 59
49 54 500
49 55 927
49 56 880
49 57 351
49 58 175
49 59 351
49 60 72
49 61 938
49 62 943
49 63 80
49 64 502
49 65 40
49 66 654
49 67 295
49 68 885
49 69 286
49 70 301
49 71 949
49 72 320
49 73 135
49 74 854
50 51 806
50 52 529
50 53 389
50 54 735
50 55 576
50 56 124
50 57 852
50 58 749
50 59 387
50 60 151
50 61 90
50 62 859
50 63 342
50 64 183
50 65 217
50 66 101
50 67 931
50 68 201
50 69 213
50 70 785
50 71 591
50 72 757
50 73 664
50 74 784
51 52 728
51 53 536
51 54 288
51 55 365
51 56 142
51 57 466
51 58 607
51 59 208
51 60 18
51 61 537
51 62 497
51 63 482
51 64 394
51 65 351
51 66 644
51 67 21
51 68 756
51 69 152
51 70 428
51 71 897
51 72 653
51 73 545
51 74 303
52 53 854
52 54 482
52 55 469
52 56 143
52 57 945
52 58 310
52 59 151
52 60 337
52 61 636
52 62 276
52 63 527
52 64 520
52 65 144
52 66 705
52 67 902
52 68 544
52 69 885
52 70 989
52 71 835
52 72 143
52 73 737
52 74 839
53 54 888
53 55 931
53 56 245
53 57 741
53 58 702
53 59 249
53 60 927
53 61 679
53 62 520
53 63 749
53 64 775
53 65 771
53 66 48
53 67 488
53 68 721
53 69 273
53 70 175
53 71 115
53 72 27
53 73 519
53 74 173
54 55 467
54 56 689
54 57 194
54 58 54
54 59 166
54 60 43
54 61 448
54 62 982
54 63 579
54 64 226
54 65 781
54 66 302
54 67 417
54 68 573
54 69 220
54 70 217
54 71 314
54 72 63
54 73 138
54 74 580
55 56 393
55 57 679
55 58 1
55 59 997
55 60 848
55 61 715
55 62 89
55 63 838
55 64 726
55 65 442
55 66 154
55 67 146
55 68 430
55 69 53
55 70 852
55 71 100
55 72 515
55 73 425
55 74 320
56 57 368
56 58 928
56 59 795
56 60 843
56 61 40
56 62 329
56 63 523
56 64 600
56 65 798
56 66 384
56 67 134
56 68 398
56 69 337
56 70 147
56 71 135
56 72 331
56 73 680
56 74 339
57 58 809
57 59 877
57 60 863
57 61 307
57 62 942
57 63 242
57 64 50
57 65 302
57 66 695
57 67 391
57 68 238
57 69 263
57 70 19
57 71 875
57 72 601
57 73 789
57 74 402
58 59 145
58 60 94
58 61 247
58 62 959
58 63 177
58 64 480
58 65 290
58 66 984
58 67 469
58 68 868
58 69 45
58 70 882
58 71 814
58 72 805
58 73 973
58 74 612
59 60 575
59 61 746
59 62 750
59 63 372
59 64 3
59 65 755
59 66 680
59 67 349
59 68 998
59 69 859
59 70 906
59 71 654
59 72 61
59 73 941
59 74 595
60 61 483
60 62 767
60 63 691
60 64 749
60 65 400
60 66 647
60 67 470
60 68 78
60 69 182
60 70 724
60 71 93
60 72 928
60 73 854
60 74 727
61 62 658
61 63 235
61 64 294
61 65 817
61 66 774
61 67 707
61 68 75
61 69 334
61 70 580
61 71 431
61 72 130
61 73 962
61 74 837
62 63 366
62 64 480
62 65 531
62 66 471
62 67 689
62 68 480
62 69 332
62 70 187
62 71 573
62 72 347
62 73 36
62 74 133
63 64 975
63 65 625
63 66 969
63 67 819
63 68 608
63 69 364
63 70 207
63 71 997
63 72 141
63 73 584
63 74 388
64 65 29
64 66 611
64 67 392
64 68 611
64 69 391
64 70 898
64 71 907
64 72 774
64 73 966
64 74 377
65 66 106
65 67 985
65 68 452
65 69 906
65 70 231
65 71 594
65 72 496
65 73 582
65 74 376
66 67 271
66 68 779
66 69 673
66 70 212
66 71 411
66 72 734
66 73 625
66 74 480
67 68 827
67 69 740
67 70 601
67 71 25
67 72 222
67 73 374
67 74 83
68 69 433
68 70 459
68 71 986
68 72 356
68 73 461
68 74 189
69 70 414
69 71 771
69 72 194
69 73 520
69 74 205
70 71 4
70 72 212
70 73 720
70 74 793
71 72 338
71 73 838
71 74 952
72 73 343
72 74 487
73 74 622
